SDVRP instances/custom_instances/p10_12_splitx10_0.vrp
NAME:p10_12_splitx10_
BEST_KNOWN: 0
COMMENT: 0
DIMENSION: 919
CAPACITY: 2000
EDGE_WEIGHT_FORMAT: FUNCTION
EDGE_WEIGHT_TYPE: EXACT_2D
NODE_COORD_SECTION
1 0.00000 0.00000
2 -46 27
3 -46 27
4 -46 27
5 -46 27
6 27 37
7 27 37
8 27 37
9 27 37
10 44 -19
11 44 -19
12 44 -19
13 44 -19
14 19 -25
15 19 -25
16 19 -25
17 -3 -5
18 -3 -5
19 -3 -5
20 -49 9
21 -49 9
22 -49 9
23 -49 9
24 -14 37
25 -14 37
26 -14 37
27 -14 37
28 -14 37
29 3 -28
30 3 -28
31 3 -28
32 3 -28
33 3 -28
34 3 -28
35 -5 -27
36 -5 -27
37 -5 -27
38 -5 -27
39 -5 -27
40 -47 32
41 -47 32
42 -47 32
43 -47 32
44 -47 32
45 -47 32
46 23 -24
47 23 -24
48 23 -24
49 23 -24
50 23 -24
51 23 -24
52 7 1
53 7 1
54 36 -21
55 36 -21
56 36 -21
57 36 -21
58 36 -21
59 36 -21
60 1 41
61 1 41
62 1 41
63 1 41
64 1 41
65 -45 13
66 -28 -3
67 -28 -3
68 -45 -49
69 -45 -49
70 -45 -49
71 -45 -49
72 -45 -49
73 4 12
74 4 12
75 4 12
76 4 12
77 4 12
78 -3 12
79 -3 12
80 -3 12
81 -3 12
82 -3 12
83 -3 12
84 -26 -28
85 -26 -28
86 -26 -28
87 40 -12
88 40 -12
89 40 -12
90 40 -12
91 40 -12
92 40 -12
93 18 49
94 18 49
95 18 49
96 18 49
97 27 -8
98 27 -8
99 27 -8
100 18 -7
101 18 -7
102 -9 15
103 -9 15
104 -9 15
105 -9 15
106 -18 -34
107 -18 -34
108 -18 -34
109 -18 -34
110 43 30
111 43 30
112 43 30
113 -42 16
114 -42 16
115 -42 16
116 -42 16
117 -42 16
118 -42 16
119 -42 16
120 21 0
121 21 0
122 21 0
123 21 0
124 21 0
125 21 36
126 21 36
127 21 36
128 21 36
129 20 -36
130 20 -36
131 20 -36
132 20 -36
133 20 -36
134 20 -36
135 -34 -35
136 -34 -35
137 -34 -35
138 -50 -22
139 -50 -22
140 -50 -22
141 32 42
142 32 42
143 32 42
144 32 42
145 31 38
146 31 38
147 31 38
148 31 38
149 31 38
150 -40 24
151 -40 24
152 -40 24
153 -2 -11
154 -2 -11
155 -2 -11
156 -2 -11
157 2 -47
158 2 -47
159 2 -47
160 2 -47
161 2 -47
162 2 -47
163 -14 42
164 -14 42
165 -14 42
166 -42 50
167 -42 50
168 -42 50
169 -42 50
170 -42 50
171 -42 50
172 -45 12
173 -45 12
174 -45 12
175 -45 12
176 -45 12
177 -45 12
178 -2 -28
179 -2 -28
180 -2 -28
181 -2 -28
182 -2 -28
183 -2 -28
184 -2 -28
185 24 -14
186 24 -14
187 24 -14
188 -3 -35
189 -3 -35
190 42 -23
191 42 -23
192 42 -23
193 15 -21
194 15 -21
195 15 -21
196 15 -21
197 15 -21
198 15 -21
199 44 -43
200 44 -43
201 44 -43
202 44 -43
203 36 -31
204 36 -31
205 36 -31
206 36 -31
207 36 -31
208 36 -31
209 36 -31
210 36 -31
211 -49 -43
212 -49 -43
213 -49 -43
214 -49 -43
215 -49 -43
216 -49 -43
217 -49 -43
218 30 -33
219 30 -33
220 30 -33
221 30 -33
222 4 3
223 4 3
224 4 3
225 4 3
226 4 3
227 4 3
228 4 3
229 -32 50
230 -32 50
231 -32 50
232 -32 50
233 -32 50
234 -32 50
235 -28 49
236 -28 49
237 -28 49
238 -28 49
239 -28 49
240 22 17
241 22 17
242 22 17
243 22 17
244 22 17
245 22 17
246 4 50
247 4 50
248 4 50
249 4 50
250 4 50
251 4 50
252 4 50
253 -2 17
254 -2 17
255 -2 17
256 44 -9
257 44 -9
258 44 -9
259 44 -9
260 44 -9
261 44 -9
262 -8 35
263 -8 35
264 -8 35
265 -8 35
266 -8 35
267 -8 35
268 48 27
269 48 27
270 48 27
271 48 27
272 48 27
273 -13 -33
274 -13 -33
275 -13 -33
276 -9 32
277 -9 32
278 -9 32
279 -9 32
280 -9 32
281 -27 -23
282 -27 -23
283 -27 -23
284 7 50
285 7 50
286 7 50
287 7 50
288 -38 13
289 -38 13
290 -38 13
291 -38 13
292 -28 11
293 -28 11
294 -28 11
295 -28 11
296 -28 11
297 12 12
298 12 12
299 12 12
300 -14 10
301 -14 10
302 -14 10
303 -14 10
304 -14 10
305 -14 10
306 -16 32
307 -16 32
308 -16 32
309 -16 32
310 -16 32
311 -21 -31
312 -21 -31
313 -21 -31
314 38 30
315 38 30
316 38 30
317 38 30
318 38 30
319 38 30
320 38 30
321 -27 35
322 -27 35
323 -27 35
324 45 -21
325 45 -21
326 45 -21
327 45 -21
328 45 -21
329 16 45
330 16 45
331 16 45
332 -27 -4
333 -27 -4
334 -27 -4
335 -27 -4
336 -27 -4
337 -27 -4
338 42 39
339 42 39
340 42 39
341 42 39
342 42 39
343 -25 -39
344 -25 -39
345 -25 -39
346 -25 -39
347 -25 -39
348 -25 -39
349 -23 20
350 -23 20
351 -23 20
352 -29 -40
353 -29 -40
354 -29 -40
355 -29 -40
356 -29 -40
357 29 -48
358 29 -48
359 29 -48
360 -42 47
361 -42 47
362 -42 47
363 -42 47
364 -42 47
365 -42 47
366 -42 47
367 -42 47
368 42 18
369 42 18
370 42 18
371 42 18
372 42 18
373 42 18
374 42 18
375 6 6
376 6 6
377 -38 18
378 -38 18
379 -38 18
380 -38 18
381 22 -43
382 22 -43
383 22 -43
384 22 -43
385 22 -43
386 22 -43
387 -36 -8
388 -36 -8
389 -36 -8
390 -36 -8
391 -14 -35
392 -14 -35
393 -23 -4
394 -23 -4
395 -23 -4
396 -23 -4
397 -23 -4
398 -23 -4
399 -37 46
400 -37 46
401 -37 46
402 -8 -46
403 -8 -46
404 -8 -46
405 -8 -46
406 -8 -46
407 8 0
408 8 0
409 -40 -32
410 -40 -32
411 -40 -32
412 -40 -32
413 -40 -32
414 -25 40
415 -25 40
416 -25 40
417 -25 40
418 -25 40
419 -25 40
420 -25 40
421 -7 -21
422 -7 -21
423 -7 -21
424 47 26
425 47 26
426 47 26
427 47 26
428 47 26
429 0 8
430 0 8
431 0 8
432 -34 24
433 -34 24
434 -34 24
435 -34 24
436 -34 24
437 -34 24
438 22 28
439 22 28
440 -20 -50
441 -20 -50
442 -20 -50
443 -20 -50
444 -8 -15
445 -8 -15
446 -8 -15
447 10 -32
448 10 -32
449 10 -32
450 10 -32
451 10 -32
452 -24 23
453 -24 23
454 -35 -18
455 -35 -18
456 -35 -18
457 -35 -18
458 -47 14
459 -47 14
460 -47 14
461 -47 14
462 -26 47
463 -26 47
464 -26 47
465 -26 47
466 -32 -19
467 -32 -19
468 -32 -19
469 -32 -19
470 -48 -45
471 -48 -45
472 -48 -45
473 -48 -45
474 -48 -45
475 20 -13
476 20 -13
477 20 -13
478 20 -13
479 -26 21
480 -26 21
481 -26 21
482 47 -43
483 47 -43
484 47 -43
485 47 -43
486 47 -43
487 34 -46
488 34 -46
489 34 -46
490 34 -46
491 34 -46
492 13 48
493 13 48
494 13 48
495 13 48
496 -14 -7
497 -14 -7
498 -14 -7
499 -14 -7
500 -14 -7
501 -23 15
502 -23 15
503 -23 15
504 -23 15
505 11 -21
506 11 -21
507 11 -21
508 11 -21
509 11 -21
510 37 29
511 37 29
512 37 29
513 37 29
514 37 29
515 37 29
516 37 29
517 4 -40
518 4 -40
519 4 -40
520 4 -40
521 4 -40
522 16 30
523 16 30
524 16 30
525 16 30
526 16 30
527 16 30
528 1 5
529 1 5
530 1 5
531 -8 9
532 -8 9
533 -8 9
534 -8 9
535 -8 9
536 -44 -14
537 -44 -14
538 -44 -14
539 -44 -14
540 -44 -14
541 -44 -14
542 -37 32
543 -37 32
544 -37 32
545 -37 32
546 -37 32
547 -37 32
548 -37 32
549 -50 -11
550 -50 -11
551 10 29
552 10 29
553 10 29
554 10 29
555 10 29
556 10 29
557 10 29
558 -40 -30
559 -40 -30
560 -40 -30
561 -40 -30
562 -40 -30
563 39 -45
564 39 -45
565 39 -45
566 39 -45
567 39 -45
568 39 -45
569 34 35
570 34 35
571 34 35
572 34 35
573 40 -46
574 40 -46
575 40 -46
576 40 -46
577 40 -46
578 40 -46
579 -17 41
580 -17 41
581 -17 41
582 -17 41
583 -17 41
584 -17 41
585 15 9
586 15 9
587 15 9
588 -27 38
589 -27 38
590 -27 38
591 -27 38
592 -27 38
593 -1 -24
594 -1 -24
595 -1 -24
596 -1 -24
597 -1 -24
598 -1 -24
599 -17 -18
600 -17 -18
601 -17 -18
602 -17 -18
603 36 4
604 36 4
605 36 4
606 36 4
607 48 -28
608 48 -28
609 -9 43
610 -9 43
611 -9 43
612 -9 43
613 -9 43
614 -9 43
615 -9 43
616 -23 -32
617 -23 -32
618 -23 -32
619 -23 -32
620 -23 -32
621 -23 -32
622 -31 -50
623 -31 -50
624 -31 -50
625 -31 -50
626 -31 -50
627 -31 -50
628 6 48
629 6 48
630 6 48
631 6 48
632 6 48
633 6 48
634 47 -50
635 47 -50
636 47 -50
637 -27 23
638 -27 23
639 -27 23
640 -27 23
641 -27 23
642 -27 23
643 -27 23
644 -27 23
645 39 -47
646 39 -47
647 39 -47
648 39 -47
649 39 42
650 39 42
651 21 20
652 21 20
653 21 20
654 21 20
655 21 20
656 21 20
657 21 20
658 -32 26
659 -32 26
660 -32 26
661 -28 -31
662 -28 -31
663 -28 -31
664 -28 -31
665 -28 -31
666 37 -24
667 37 -24
668 37 -24
669 37 -24
670 37 -24
671 37 -24
672 7 48
673 7 48
674 7 48
675 7 48
676 7 48
677 -48 -45
678 -48 -45
679 -48 -45
680 -48 -45
681 -48 -45
682 -27 -9
683 -27 -9
684 -27 -9
685 -27 -9
686 -27 -9
687 -23 8
688 -23 8
689 -23 8
690 -23 8
691 -23 8
692 -23 8
693 -39 46
694 -39 46
695 -39 46
696 -39 46
697 -39 46
698 -30 -18
699 -30 -18
700 -30 -18
701 -30 -18
702 -30 -18
703 -30 -18
704 -32 11
705 -32 11
706 -32 11
707 -32 11
708 -32 11
709 5 4
710 5 4
711 5 4
712 5 4
713 42 5
714 42 5
715 42 5
716 42 5
717 42 5
718 -48 -28
719 -48 -28
720 -48 -28
721 -48 -28
722 -48 -28
723 -48 -28
724 -48 -28
725 9 30
726 9 30
727 9 30
728 9 30
729 -30 16
730 -30 16
731 -30 16
732 -30 16
733 -5 3
734 -5 3
735 -5 3
736 -5 3
737 -14 -40
738 -14 -40
739 -14 -40
740 -1 32
741 -1 32
742 -1 32
743 -1 32
744 -1 32
745 -1 32
746 -37 -22
747 -37 -22
748 -37 -22
749 -37 -22
750 11 -19
751 11 -19
752 11 -19
753 11 -19
754 36 23
755 36 23
756 36 23
757 22 -50
758 22 -50
759 22 -50
760 22 -50
761 22 -50
762 22 -50
763 22 -50
764 16 27
765 16 27
766 16 27
767 50 6
768 50 6
769 50 6
770 50 6
771 50 6
772 45 -33
773 45 -33
774 45 -33
775 45 -33
776 -39 -5
777 -39 -5
778 -39 -5
779 -39 -5
780 -39 -5
781 -39 -5
782 31 -24
783 31 -24
784 31 -24
785 31 -24
786 36 -44
787 36 -44
788 36 -44
789 36 -44
790 36 -44
791 24 42
792 24 42
793 24 42
794 -42 -48
795 -42 -48
796 -42 -48
797 -3 -44
798 -3 -44
799 -3 -44
800 44 -13
801 44 -13
802 44 -13
803 -39 4
804 -39 4
805 -14 -30
806 -14 -30
807 -14 -30
808 -14 -30
809 -14 -30
810 -16 42
811 -16 42
812 -16 42
813 -16 42
814 -16 42
815 33 -43
816 33 -43
817 33 -43
818 33 -43
819 33 -43
820 8 -47
821 8 -47
822 -25 -6
823 -25 -6
824 -25 -6
825 -25 -6
826 36 -50
827 36 -50
828 36 -50
829 36 -50
830 36 -50
831 15 -18
832 15 -18
833 15 -18
834 15 -18
835 15 -18
836 15 -18
837 15 -18
838 23 18
839 23 18
840 23 18
841 23 18
842 23 18
843 23 18
844 38 0
845 38 0
846 38 0
847 38 0
848 37 44
849 37 44
850 37 44
851 37 44
852 37 44
853 37 44
854 37 44
855 6 -9
856 6 -9
857 6 -9
858 6 -9
859 -25 -12
860 -25 -12
861 -25 -12
862 -25 -12
863 -25 -12
864 -25 -12
865 -25 -12
866 -8 30
867 -8 30
868 -8 30
869 -8 30
870 -8 30
871 -8 30
872 -8 30
873 -8 30
874 5 5
875 5 5
876 5 5
877 4 -37
878 4 -37
879 4 -37
880 4 -37
881 4 -37
882 10 8
883 10 8
884 10 8
885 10 8
886 10 8
887 -22 -2
888 -22 -2
889 -22 -2
890 45 -3
891 45 -3
892 45 -3
893 45 -3
894 45 -3
895 45 -3
896 45 -3
897 -16 -17
898 -16 -17
899 -16 -17
900 -16 -17
901 -39 34
902 -39 34
903 -39 34
904 -39 34
905 41 40
906 41 40
907 41 40
908 41 40
909 41 40
910 41 40
911 41 40
912 -50 42
913 -50 42
914 -50 42
915 -50 42
916 -18 43
917 -18 43
918 -18 43
919 -18 43
DEMAND_SECTION
1 0
2 400
3 20
4 20
5 10
6 400
7 200
8 20
9 10
10 400
11 400
12 100
13 10
14 400
15 200
16 10
17 400
18 400
19 10
20 400
21 400
22 100
23 10
24 400
25 20
26 20
27 20
28 20
29 400
30 200
31 100
32 20
33 20
34 10
35 400
36 200
37 100
38 20
39 20
40 200
41 100
42 20
43 20
44 20
45 20
46 400
47 100
48 20
49 20
50 20
51 20
52 400
53 400
54 400
55 100
56 20
57 20
58 20
59 10
60 200
61 100
62 20
63 20
64 10
65 400
66 400
67 200
68 200
69 20
70 20
71 20
72 10
73 400
74 100
75 20
76 20
77 10
78 400
79 100
80 20
81 20
82 20
83 20
84 400
85 200
86 100
87 400
88 20
89 20
90 20
91 20
92 10
93 400
94 200
95 100
96 20
97 400
98 100
99 20
100 200
101 100
102 200
103 100
104 20
105 20
106 400
107 100
108 20
109 20
110 400
111 400
112 10
113 400
114 400
115 100
116 20
117 20
118 20
119 10
120 400
121 100
122 20
123 20
124 10
125 400
126 200
127 20
128 10
129 400
130 400
131 100
132 20
133 20
134 10
135 400
136 100
137 10
138 400
139 200
140 100
141 400
142 200
143 100
144 20
145 200
146 100
147 20
148 20
149 10
150 400
151 200
152 100
153 400
154 400
155 100
156 10
157 400
158 20
159 20
160 20
161 20
162 10
163 400
164 400
165 200
166 200
167 100
168 20
169 20
170 20
171 10
172 200
173 100
174 20
175 20
176 20
177 10
178 400
179 400
180 100
181 20
182 20
183 20
184 10
185 400
186 400
187 20
188 400
189 200
190 400
191 100
192 10
193 200
194 20
195 20
196 20
197 20
198 10
199 400
200 400
201 20
202 20
203 400
204 400
205 100
206 20
207 20
208 20
209 20
210 10
211 400
212 200
213 20
214 20
215 20
216 20
217 10
218 400
219 200
220 20
221 20
222 400
223 400
224 20
225 20
226 20
227 20
228 10
229 400
230 400
231 100
232 20
233 20
234 10
235 200
236 100
237 20
238 20
239 20
240 400
241 200
242 100
243 20
244 20
245 10
246 400
247 400
248 100
249 20
250 20
251 20
252 20
253 400
254 200
255 20
256 400
257 400
258 20
259 20
260 20
261 20
262 200
263 100
264 20
265 20
266 20
267 10
268 400
269 200
270 100
271 20
272 20
273 200
274 100
275 10
276 400
277 20
278 20
279 20
280 10
281 400
282 100
283 20
284 400
285 400
286 20
287 20
288 400
289 100
290 20
291 10
292 400
293 400
294 20
295 20
296 20
297 400
298 400
299 20
300 400
301 200
302 20
303 20
304 20
305 10
306 200
307 20
308 20
309 20
310 20
311 400
312 200
313 10
314 400
315 200
316 100
317 20
318 20
319 20
320 20
321 400
322 200
323 20
324 200
325 20
326 20
327 20
328 20
329 400
330 20
331 20
332 200
333 100
334 20
335 20
336 20
337 20
338 200
339 100
340 20
341 20
342 10
343 400
344 200
345 100
346 20
347 20
348 10
349 200
350 100
351 10
352 400
353 100
354 20
355 20
356 10
357 400
358 200
359 10
360 400
361 400
362 100
363 20
364 20
365 20
366 20
367 10
368 400
369 200
370 100
371 20
372 20
373 20
374 20
375 400
376 400
377 200
378 20
379 20
380 20
381 400
382 200
383 100
384 20
385 20
386 10
387 400
388 400
389 20
390 10
391 400
392 10
393 400
394 400
395 20
396 20
397 20
398 10
399 400
400 100
401 20
402 200
403 100
404 20
405 20
406 10
407 400
408 400
409 400
410 200
411 20
412 20
413 10
414 400
415 400
416 100
417 20
418 20
419 20
420 20
421 400
422 400
423 20
424 400
425 400
426 100
427 20
428 10
429 400
430 200
431 20
432 400
433 20
434 20
435 20
436 20
437 10
438 400
439 400
440 400
441 200
442 100
443 10
444 200
445 100
446 10
447 200
448 100
449 20
450 20
451 20
452 200
453 100
454 200
455 100
456 20
457 20
458 400
459 20
460 20
461 20
462 400
463 200
464 20
465 10
466 200
467 100
468 20
469 20
470 400
471 400
472 20
473 20
474 20
475 200
476 20
477 20
478 10
479 200
480 100
481 20
482 400
483 200
484 100
485 20
486 10
487 400
488 400
489 100
490 20
491 10
492 400
493 400
494 100
495 20
496 200
497 100
498 20
499 20
500 10
501 400
502 200
503 100
504 10
505 400
506 400
507 20
508 20
509 10
510 400
511 200
512 100
513 20
514 20
515 20
516 10
517 400
518 200
519 100
520 20
521 10
522 400
523 200
524 20
525 20
526 20
527 10
528 400
529 400
530 100
531 400
532 20
533 20
534 20
535 10
536 400
537 200
538 20
539 20
540 20
541 20
542 400
543 100
544 20
545 20
546 20
547 20
548 10
549 400
550 10
551 400
552 200
553 100
554 20
555 20
556 20
557 20
558 400
559 400
560 100
561 20
562 10
563 400
564 200
565 100
566 20
567 20
568 10
569 200
570 20
571 20
572 10
573 400
574 200
575 20
576 20
577 20
578 10
579 400
580 200
581 20
582 20
583 20
584 10
585 200
586 100
587 20
588 200
589 100
590 20
591 20
592 20
593 200
594 100
595 20
596 20
597 20
598 20
599 400
600 400
601 100
602 20
603 200
604 100
605 20
606 10
607 200
608 100
609 400
610 400
611 100
612 20
613 20
614 20
615 10
616 400
617 400
618 100
619 20
620 20
621 10
622 400
623 400
624 100
625 20
626 20
627 20
628 200
629 100
630 20
631 20
632 20
633 10
634 400
635 100
636 10
637 400
638 200
639 100
640 20
641 20
642 20
643 20
644 10
645 400
646 400
647 20
648 20
649 400
650 100
651 400
652 200
653 100
654 20
655 20
656 20
657 10
658 400
659 20
660 10
661 400
662 20
663 20
664 20
665 10
666 400
667 200
668 20
669 20
670 20
671 10
672 400
673 20
674 20
675 20
676 10
677 400
678 200
679 20
680 20
681 20
682 400
683 100
684 20
685 20
686 10
687 400
688 200
689 100
690 20
691 20
692 20
693 400
694 20
695 20
696 20
697 10
698 200
699 100
700 20
701 20
702 20
703 20
704 400
705 20
706 20
707 20
708 20
709 400
710 100
711 20
712 10
713 400
714 200
715 100
716 20
717 20
718 400
719 100
720 20
721 20
722 20
723 20
724 10
725 400
726 200
727 100
728 20
729 400
730 200
731 20
732 20
733 400
734 400
735 20
736 10
737 200
738 100
739 10
740 400
741 200
742 100
743 20
744 20
745 10
746 400
747 400
748 20
749 10
750 200
751 100
752 20
753 10
754 400
755 20
756 20
757 400
758 200
759 20
760 20
761 20
762 20
763 10
764 400
765 200
766 20
767 400
768 200
769 20
770 20
771 20
772 400
773 200
774 20
775 20
776 200
777 100
778 20
779 20
780 20
781 20
782 400
783 200
784 20
785 10
786 200
787 20
788 20
789 20
790 20
791 400
792 400
793 100
794 400
795 20
796 20
797 400
798 100
799 10
800 400
801 400
802 200
803 200
804 100
805 400
806 100
807 20
808 20
809 20
810 400
811 400
812 20
813 20
814 20
815 400
816 400
817 100
818 20
819 10
820 400
821 400
822 400
823 100
824 20
825 20
826 400
827 20
828 20
829 20
830 20
831 400
832 400
833 100
834 20
835 20
836 20
837 10
838 400
839 400
840 20
841 20
842 20
843 10
844 400
845 100
846 20
847 10
848 400
849 400
850 100
851 20
852 20
853 20
854 10
855 400
856 20
857 20
858 20
859 400
860 400
861 100
862 20
863 20
864 20
865 10
866 400
867 400
868 100
869 20
870 20
871 20
872 20
873 10
874 400
875 200
876 20
877 400
878 400
879 20
880 20
881 10
882 400
883 400
884 20
885 20
886 20
887 400
888 200
889 10
890 400
891 200
892 100
893 20
894 20
895 20
896 10
897 400
898 20
899 20
900 10
901 400
902 200
903 20
904 20
905 200
906 100
907 20
908 20
909 20
910 20
911 10
912 200
913 100
914 20
915 10
916 400
917 20
918 20
919 10
DEPOT_SECTION
1
-1
EOF