SDVRP instances/custom_instances/p10_12_splitx10_0.sol
918 -7 5 6 8 146 144 147 148 145 143 141 94 92 95 93 -18 17 16 152 153 155 154 -30 31 32 28 33 29 876 879 880 877 878 516 -37 38 35 36 34 179 180 181 182 183 177 178 594 592 595 596 -46 45 49 47 217 219 220 218 128 129 132 -48 50 816 815 489 487 486 356 357 358 -51 52 407 406 -64 112 114 113 116 117 118 115 290 288 289 287 706 707 705 691 -72 74 75 554 552 551 556 553 550 555 724 727 725 726 -73 76 330 329 328 494 492 491 493 283 286 285 674 672 -80 78 77 81 79 82 254 252 253 428 430 429 -85 135 408 409 411 559 557 560 558 561 498 495 499 497 -86 10 9 12 11 324 325 323 327 326 191 189 -90 88 91 89 87 800 801 799 257 255 260 256 259 258 -100 99 475 54 58 55 57 56 53 667 665 670 669 666 668 781 783 784 -101 587 590 589 591 588 320 321 322 657 659 658 637 638 639 641 -104 103 102 365 362 361 366 359 360 363 364 168 170 169 167 165 166 912 911 913 914 542 -106 108 107 105 343 344 342 345 347 346 354 355 353 351 352 617 618 -122 120 602 604 603 605 712 716 715 714 713 370 369 371 372 367 368 373 -123 121 119 98 96 97 185 186 184 477 476 474 -130 133 131 382 381 385 380 384 383 757 762 760 761 759 758 756 450 448 446 449 447 -134 136 471 680 678 469 470 210 216 215 213 212 211 214 412 410 -142 140 852 853 848 851 850 849 847 648 649 -176 171 175 172 173 174 21 19 22 20 459 460 457 458 376 379 295 -187 797 798 796 402 403 401 404 405 391 390 274 273 272 -190 606 607 772 774 773 771 205 206 203 202 208 207 -193 195 197 192 194 196 14 15 13 836 834 832 830 831 835 833 -201 199 200 198 827 825 826 829 828 789 785 818 814 817 -223 226 225 227 221 222 224 528 527 529 -232 230 231 229 233 228 399 400 398 695 696 694 692 693 -244 239 241 242 240 243 837 838 842 650 654 -251 248 247 246 249 245 250 284 673 671 675 628 631 630 632 -266 265 263 264 262 162 163 164 25 24 27 26 23 305 309 308 306 307 -280 281 282 660 664 662 663 661 83 84 599 -291 292 293 294 704 703 688 686 687 690 689 -296 298 297 885 883 884 882 881 711 710 -334 332 335 333 336 331 682 684 681 685 683 861 859 862 863 864 860 858 496 -349 350 348 451 452 642 636 640 643 478 480 479 500 503 501 -377 378 1 3 4 2 40 39 44 42 41 43 901 903 902 900 541 546 543 547 544 545 -396 394 395 66 65 388 389 387 386 775 802 803 -413 418 414 417 419 415 416 238 236 237 234 235 461 463 464 462 -423 427 426 424 425 269 270 268 267 271 586 584 585 -445 444 443 422 421 420 598 601 897 899 896 898 -453 454 455 456 748 747 746 745 468 466 467 465 697 700 701 698 699 702 600 -488 490 644 576 573 574 572 577 575 567 564 562 563 566 565 788 786 787 -502 433 432 436 435 431 434 149 150 151 728 729 730 731 -504 508 507 505 506 751 752 749 750 854 856 857 855 -515 511 512 513 514 510 509 317 319 315 313 318 316 314 755 754 753 -518 517 520 519 820 819 156 158 161 160 159 157 188 593 597 -525 791 790 792 126 125 127 124 765 763 -532 533 534 531 530 299 300 304 302 303 301 734 733 732 735 -540 536 539 538 535 537 137 139 138 548 549 776 778 777 780 779 -570 571 569 568 909 910 907 904 908 905 906 340 337 339 338 341 110 111 109 841 839 840 -578 581 582 583 579 580 918 915 916 917 809 811 813 812 810 -609 613 611 614 612 610 608 276 277 275 279 278 866 869 867 870 -619 620 616 615 311 312 310 804 806 808 805 807 -625 624 623 621 622 626 441 442 440 439 736 737 738 -647 646 645 633 634 635 484 485 482 483 481 209 204 782 -652 655 653 651 656 438 437 521 522 526 523 524 764 -709 708 374 375 874 875 873 -722 719 720 721 723 717 718 679 472 677 473 676 69 71 68 67 70 795 794 793 -739 744 740 741 742 743 629 627 62 63 60 59 61 261 871 865 868 872 -767 766 768 770 769 891 894 890 895 889 893 892 846 843 845 844 -822 823 821 824 397 392 393 887 886 888 0 





OBJ=
5793.181
BEST_KNOWN=
0.000